SCIP Status        : solving was interrupted [time limit reached]
Total Time         :    3600.02
  solving          :    3600.00
  presolving       :       0.26 (included in solving)
  reading          :       0.02
  copying          :       0.57 (42 #copies) (minimal 0.00, maximal 0.05, average 0.01)
Original Problem   :
  Problem name     : bbbenchmark/pw09_100.6.cut
  Variables        : 101 (100 binary, 0 integer, 0 implicit integer, 1 continuous)
  Constraints      : 1 initial, 1 maximal
  Objective        : minimize, 1 non-zeros (abs.min = 1, abs.max = 1)
Presolved Problem  :
  Problem name     : t_bbbenchmark/pw09_100.6.cut
  Variables        : 1330 (100 binary, 0 integer, 1181 implicit integer, 49 continuous)
  Constraints      : 1326 initial, 7365 maximal
  Objective        : minimize, 1 non-zeros (abs.min = 1, abs.max = 1)
  Nonzeros         : 11661 constraint, 202 clique table
Presolvers         :   ExecTime  SetupTime  Calls  FixedVars   AggrVars   ChgTypes  ChgBounds   AddHoles    DelCons    AddCons   ChgSides   ChgCoefs
  boundshift       :       0.00       0.00      0          0          0          0          0          0          0          0          0          0
  convertinttobin  :       0.00       0.00      0          0          0          0          0          0          0          0          0          0
  domcol           :       0.00       0.00      1          0          0          0          0          0          0          0          0          0
  dualagg          :       0.00       0.00      0          0          0          0          0          0          0          0          0          0
  dualcomp         :       0.00       0.00      1          0          0          0          0          0          0          0          0          0
  dualinfer        :       0.00       0.00      0          0          0          0          0          0          0          0          0          0
  dualsparsify     :       0.00       0.00      1          0          0          0          0          0          0          0          0          0
  gateextraction   :       0.00       0.00      0          0          0          0          0          0          0          0          0          0
  implics          :       0.00       0.00      2          0          0          0          0          0          0          0          0          0
  inttobinary      :       0.00       0.00      0          0          0          0          0          0          0          0          0          0
  qpkktref         :       0.00       0.00      0          0          0          0          0          0          0          0          0          0
  redvub           :       0.00       0.00      0          0          0          0          0          0          0          0          0          0
  sparsify         :       0.00       0.00      1          0          0          0          0          0          0          0          0          0
  stuffing         :       0.00       0.00      0          0          0          0          0          0          0          0          0          0
  trivial          :       0.00       0.00      4          0          0          0          0          0          0          0          0          0
  tworowbnd        :       0.00       0.00      0          0          0          0          0          0          0          0          0          0
  dualfix          :       0.00       0.00      4          0          0          0          0          0          0          0          0          0
  genvbounds       :       0.00       0.00      0          0          0          0          0          0          0          0          0          0
  probing          :       0.10       0.00      1          0          0          0          0          0          0          0          0          0
  pseudoobj        :       0.00       0.00      1          0          0          0          1          0          0          0          0          0
  symmetry         :       0.00       0.00      0          0          0          0          0          0          0          0          0          0
  vbounds          :       0.00       0.00      1          0          0          0          0          0          0          0          0          0
  varbound         :       0.00       0.00      2          0          0          0          0          0          0          0          0          0
  and              :       0.01       0.00      2          0          0          0          0          0          0          0          0          0
  linear           :       0.00       0.00      2          0          0          0          0          0          0          0          0          0
  logicor          :       0.00       0.00      0          0          0          0          0          0          0          0          0          0
  bounddisjunction :       0.00       0.00      0          0          0          0          0          0          0          0          0          0
  nonlinear        :       0.14       0.01      5          0          0          0          1          0          0       1325          0          0
  benders          :       0.00       0.00      0          0          0          0          0          0          0          0          0          0
  components       :       0.00       0.00      1          0          0          0          0          0          0          0          0          0
  root node        :          -          -      -          0          -          -          7          -          -          -          -          -
Constraints        :     Number  MaxNumber  #Separate #Propagate    #EnfoLP    #EnfoRelax  #EnfoPS    #Check   #ResProp    Cutoffs    DomReds       Cuts    Applied      Conss   Children
  benderslp        :          0          0          0          0     114471          0          0      16974          0          0          0          0          0          0          0
  integral         :          0          0          0          0     114471          0          0      16974          0          0         60          0          0         31     228840
  varbound         :         48         48         34     777029          0          0          0       5074        168          0      70698          0          0          0          0
  and              :       1181       1181     145928     787248          0          0          0       1212     155187          1     505120      19368      16941          0          0
  linear           :         97+       151         34     787488          0          0          0       1210      18687         83    1667206          0          0          0          0
  logicor          :          0+      2334          0      60991          0          0          0          0         12        274          0          0          0          0          0
  bounddisjunction :          0+      3676          0      78560          0          0          0          0          6         61          0          0          0          0          0
  benders          :          0          0          0          0          0          0          0        148          0          0          0          0          0          0          0
  countsols        :          0          0          0          0          0          0          0        148          0          0          0          0          0          0          0
  components       :          0          0          0          0          0          0          0          0          0          0          0          0          0          0          0
Constraint Timings :  TotalTime  SetupTime   Separate  Propagate     EnfoLP     EnfoPS     EnfoRelax   Check    ResProp    SB-Prop
  benderslp        :       0.10       0.00       0.00       0.00       0.09       0.00       0.00       0.01       0.00       0.00
  integral         :      29.49       0.00       0.00       0.00      29.27       0.00       0.00       0.22       0.00       0.00
  varbound         :       0.93       0.00       0.00       0.89       0.00       0.00       0.00       0.04       0.00       0.00
  and              :      51.22       0.00      38.84      11.90       0.00       0.00       0.00       0.13       0.19       0.16
  linear           :      10.91       0.00       0.01      10.77       0.00       0.00       0.00       0.02       0.04       0.07
  logicor          :       1.49       0.00       0.00       1.49       0.00       0.00       0.00       0.00       0.00       0.00
  bounddisjunction :       2.50       0.00       0.00       2.46       0.00       0.00       0.00       0.00       0.00       0.04
  benders          :       0.00       0.00       0.00       0.00       0.00       0.00       0.00       0.00       0.00       0.00
  countsols        :       0.00       0.00       0.00       0.00       0.00       0.00       0.00       0.00       0.00       0.00
  components       :       0.11       0.00       0.00       0.11       0.00       0.00       0.00       0.00       0.00       0.00
Propagators        : #Propagate   #ResProp    Cutoffs    DomReds
  dualfix          :          2          0          0          0
  genvbounds       :          0          0          0          0
  nlobbt           :          0          0          0          0
  obbt             :          0          0          0          0
  probing          :          0          0          0          0
  pseudoobj        :     510043          2          0       1951
  redcost          :     277221          0          0     106332
  rootredcost      :         15          0          0          0
  symmetry         :          0          0          0          0
  vbounds          :     140123          0          0          0
Propagator Timings :  TotalTime  SetupTime   Presolve  Propagate    ResProp    SB-Prop
  dualfix          :       0.00       0.00       0.00       0.00       0.00       0.00
  genvbounds       :       0.51       0.00       0.00       0.51       0.00       0.00
  nlobbt           :       0.00       0.00       0.00       0.00       0.00       0.00
  obbt             :       0.00       0.00       0.00       0.00       0.00       0.00
  probing          :       0.10       0.00       0.10       0.00       0.00       0.00
  pseudoobj        :       0.59       0.00       0.00       0.58       0.00       0.01
  redcost          :       9.20       0.00       0.00       9.20       0.00       0.00
  rootredcost      :       0.39       0.00       0.00       0.39       0.00       0.00
  symmetry         :       0.29       0.00       0.00       0.29       0.00       0.00
  vbounds          :       0.46       0.00       0.00       0.46       0.00       0.00
Conflict Analysis  :       Time      Calls    Success    DomReds  Conflicts   Literals    Reconvs ReconvLits   Dualrays   Nonzeros   LP Iters   (pool size: [10000,10000])
  propagation      :       0.01        336        210          -        281       75.1          0        0.0          -          -          -
  infeasible LP    :       0.08         89         89          -       1874      140.9          0        0.0        149      140.6          0
  bound exceed. LP :      14.26       4601       4415          -      59146      107.2          0        0.0          0        0.0      68582
  strong branching :       0.00          0          0          -          0        0.0          0        0.0          -          -          0
  pseudo solution  :       0.00          0          0          -          0        0.0          0        0.0          -          -          -
  applied globally :       0.18          -          -          0      17051       94.4          -          -        149          -          -
  applied locally  :          -          -          -          0          0        0.0          -          -          0          -          -
Separators         :   ExecTime  SetupTime      Calls  RootCalls    Cutoffs    DomReds  FoundCuts ViaPoolAdd  DirectAdd    Applied ViaPoolApp  DirectApp      Conss
  cut pool         :       2.44          -      30692         56          -          -      35469     414535          -          -          -          -          -    (maximal pool size:       1919)
  aggregation      :      49.78       0.00       6730         34          0          0       3573      10337          0       4270       4270          0          0
  > cmir           :          -          -          -          -          -          -          -      10285          0       4247       4247          0          -
  > flowcover      :          -          -          -          -          -          -          -         52          0         23         23          0          -
  > knapsackcover  :          -          -          -          -          -          -          -          0          0          0          0          0          -
  cgmip            :       0.00       0.00          0          0          0          0          0          0          0          0          0          0          0
  clique           :       0.00       0.00         34         34          0          0          0          0          0          0          0          0          0
  closecuts        :       0.00       0.00          0          0          0          0          0          0          0          0          0          0          0
  convexproj       :       0.00       0.00          0          0          0          0          0          0          0          0          0          0          0
  disjunctive      :       0.00       0.00          0          0          0          0          0          0          0          0          0          0          0
  eccuts           :       0.00       0.00          0          0          0          0          0          0          0          0          0          0          0
  gauge            :       0.00       0.00          0          0          0          0          0          0          0          0          0          0          0
  gomory           :       0.00       0.00          0          0          0          0          0          0          0          0          0          0          0
  > gomorymi       :          -          -          -          -          -          -          -          0          0          0          0          0          -
  > strongcg       :          -          -          -          -          -          -          -          0          0          0          0          0          -
  impliedbounds    :       0.36       0.00       6730         34          0          0         63         10          0          8          8          0          0
  interlattice     :       0.02       0.00          7          7          0          0          7          0          7          7          0          7          0
  interminor       :       0.00       0.00          0          0          0          0          0          0          0          0          0          0          0
  intersub         :       0.00       0.00          0          0          0          0          0          0          0          0          0          0          0
  intobj           :       0.00       0.00          0          0          0          0          0          0          0          0          0          0          0
  mcf              :       0.00       0.00          1          1          0          0          0          0          0          0          0          0          0
  minor            :       0.02       0.00          0          0          0          0          0          0          0          0          0          0          0
  mixing           :       0.06       0.00       6730         34          0          0          0          0          0          0          0          0          0
  oddcycle         :       0.00       0.00          0          0          0          0          0          0          0          0          0          0          0
  rapidlearning    :       0.00       0.00          0          0          0          0          0          0          0          0          0          0          0
  rlt              :       0.00       0.00         10         10          0          0          0          0          0          0          0          0          0
  zerohalf         :      35.93       0.00       6366         20          0          0      31833     404188          0      98603      98603          0          0
Cutselectors       :   ExecTime  SetupTime      Calls  RootCalls   Selected     Forced   Filtered  RootSelec   RootForc   RootFilt 
  hybrid           :       0.25       0.00      23367         34     119829          0     314081        137          0         30
Pricers            :   ExecTime  SetupTime      Calls       Vars
  problem variables:       0.00          -          0          0
Branching Rules    :   ExecTime  SetupTime   BranchLP  BranchExt   BranchPS    Cutoffs    DomReds       Cuts      Conss   Children
  allfullstrong    :       0.00       0.00          0          0          0          0          0          0          0          0
  cloud            :       0.00       0.00          0          0          0          0          0          0          0          0
  distribution     :       0.00       0.00          0          0          0          0          0          0          0          0
  fullstrong       :       0.00       0.00          0          0          0          0          0          0          0          0
  inference        :       0.00       0.00          0          0          0          0          0          0          0          0
  leastinf         :       0.00       0.00          0          0          0          0          0          0          0          0
  lookahead        :       0.00       0.00          0          0          0          0          0          0          0          0
  mostinf          :       0.00       0.00          0          0          0          0          0          0          0          0
  multaggr         :       0.00       0.00          0          0          0          0          0          0          0          0
  nodereopt        :       0.00       0.00          0          0          0          0          0          0          0          0
  pscost           :       0.00       0.00          0          0          0          0          0          0          0          0
  random           :       0.00       0.00          0          0          0          0          0          0          0          0
  relpscost        :      28.99       0.00     114471          0          0          0         60          0         31     228840
  vanillafullstrong:       0.00       0.00          0          0          0          0          0          0          0          0
Primal Heuristics  :   ExecTime  SetupTime      Calls      Found       Best
  LP solutions     :       0.00          -          -          0          0
  relax solutions  :       0.00          -          -          0          0
  pseudo solutions :       0.00          -          -          0          0
  strong branching :       0.01          -          -          0          0
  actconsdiving    :       0.00       0.00          0          0          0
  adaptivediving   :       3.73       0.00         71          0          0
  alns             :       0.73       0.00         13          0          0
  bound            :       0.00       0.00          0          0          0
  clique           :       0.00       0.00          1          0          0
  coefdiving       :       0.00       0.00          0          0          0
  completesol      :       0.00       0.00          0          0          0
  conflictdiving   :      60.31       0.00        492          1          1
  crossover        :       5.54       0.00          5          1          1
  dins             :       0.00       0.00          0          0          0
  distributiondivin:      74.36       0.00        492          0          0
  dps              :       0.00       0.00          0          0          0
  dualval          :       0.00       0.00          0          0          0
  farkasdiving     :       0.03       0.00          0          0          0
  feaspump         :       0.07       0.00          2          1          0
  fixandinfer      :       0.00       0.00          0          0          0
  fracdiving       :      30.60       0.00        493          0          0
  gins             :       0.07       0.00          0          0          0
  guideddiving     :      31.52       0.00        492          1          1
  indicator        :       0.08       0.00          0          0          0
  indicatordiving  :       0.00       0.00          0          0          0
  intdiving        :       0.00       0.00          0          0          0
  intshifting      :       0.79       0.00         94          0          0
  linesearchdiving :      33.05       0.00        492          5          5
  localbranching   :       0.00       0.00          0          0          0
  locks            :       0.00       0.00          1          0          0
  lpface           :       0.12       0.00          0          0          0
  mpec             :      47.01       0.00         11          0          0
  multistart       :       0.00       0.00          0          0          0
  mutation         :       0.00       0.00          0          0          0
  nlpdiving        :      12.76       0.00          3          1          0
  objpscostdiving  :     116.82       0.00        243         91          1
  octane           :       0.00       0.00          0          0          0
  ofins            :       0.05       0.00          0          0          0
  oneopt           :       0.06       0.00         17          0          0
  padm             :       0.00       0.00          0          0          0
  proximity        :       0.00       0.00          0          0          0
  pscostdiving     :      55.40       0.00        492          4          4
  randrounding     :       0.90       0.00      16840          0          0
  rens             :       0.00       0.00          0          0          0
  reoptsols        :       0.00       0.00          0          0          0
  repair           :       0.00       0.00          0          0          0
  rins             :       2.68       0.00         23          0          0
  rootsoldiving    :      15.53       0.00        243         36          1
  rounding         :       1.09       0.00       5087          0          0
  shiftandpropagate:       0.00       0.00          0          0          0
  shifting         :      16.90       0.00       7144          1          1
  simplerounding   :       0.11       0.00          0          0          0
  subnlp           :      84.05       0.00          0          0          0
  trivial          :       0.01       0.00          2          2          2
  trivialnegation  :       0.00       0.00          0          0          0
  trustregion      :       0.00       0.00          0          0          0
  trysol           :       0.17       0.00          0          0          0
  twoopt           :       0.00       0.00          0          0          0
  undercover       :       2.55       0.00          1          1          1
  vbounds          :       0.00       0.00          0          0          0
  veclendiving     :      33.11       0.00        493          0          0
  zeroobj          :       0.00       0.00          0          0          0
  zirounding       :       0.24       0.00       1000          0          0
  other solutions  :          -          -          -          0          -
Diving (single)    :      Calls      Nodes   LP Iters Backtracks  Conflicts   MinDepth   MaxDepth   AvgDepth  RoundSols  NLeafSols  MinSolDpt  MaxSolDpt  AvgSolDpt
  actconsdiving    :          0          -          -          -          -          -          -          -          -          -          -          -          -
  coefdiving       :          0          -          -          -          -          -          -          -          -          -          -          -          -
  conflictdiving   :        492      17559     755595        429       6523         64         91       74.3          0          1         86         86       86.0
  distributiondivin:        492      15439     664703        578      10432         60         93       74.7          0          -          -          -          -
  farkasdiving     :          0          -          -          -          -          -          -          -          -          -          -          -          -
  fracdiving       :        493      73541     347402         96       1277         72        661      193.4          0          -          -          -          -
  guideddiving     :        492      58701     352888         64       2348         67        485      163.7          0          1        153        153      153.0
  indicatordiving  :          0          -          -          -          -          -          -          -          -          -          -          -          -
  linesearchdiving :        492      23844     376553        109       9425         64        111       90.8          0          5         84        101       92.0
  pscostdiving     :        492      20398     600868        510       9077         69         99       85.1          0          4         79         90       86.0
  veclendiving     :        493      18747     368192        413      21059         65         96       79.3          0          -          -          -          -
Diving (adaptive)  :      Calls      Nodes   LP Iters Backtracks  Conflicts   MinDepth   MaxDepth   AvgDepth  RoundSols  NLeafSols  MinSolDpt  MaxSolDpt  AvgSolDpt
  actconsdiving    :          4         82       1355          5         38         68         73       71.2          0          -          -          -          -
  coefdiving       :         15        561       9166         10        403         69         94       81.6          0          -          -          -          -
  conflictdiving   :          0          -          -          -          -          -          -          -          -          -          -          -          -
  distributiondivin:          0          -          -          -          -          -          -          -          -          -          -          -          -
  farkasdiving     :          0          -          -          -          -          -          -          -          -          -          -          -          -
  fracdiving       :         11        856       2701          1         68         79        360      125.2          0          -          -          -          -
  guideddiving     :          8        828       4716          0          0        114        220      153.4          0          -          -          -          -
  indicatordiving  :          0          -          -          -          -          -          -          -          -          -          -          -          -
  linesearchdiving :         20        968      15448          2        359         72         99       89.2          0          -          -          -          -
  pscostdiving     :          4        158       3082          4         44         85         88       86.5          0          -          -          -          -
  veclendiving     :          9        270       3955          3        230         67         87       76.7          0          -          -          -          -
Neighborhoods      :      Calls  SetupTime  SolveTime SolveNodes       Sols       Best       Exp3  EpsGreedy        UCB TgtFixRate  Opt  Inf Node Stal  Sol  Usr Othr Actv
  rens             :          2       0.03       0.08         50          0          0    0.00000   -1.00000    0.47095      0.850    0    1    0    1    0    0    0    1
  rins             :          1       0.01       0.00          1          0          0    0.00000   -1.00000    0.56398      0.700    0    1    0    0    0    0    0    1
  mutation         :          1       0.01       0.01         23          0          0    0.00000   -1.00000    0.54428      0.700    0    1    0    0    0    0    0    1
  localbranching   :          2       0.02       0.04         60          0          0    0.00000   -1.00000    0.47045      0.850    0    1    0    1    0    0    0    1
  crossover        :          2       0.07       0.15         63          0          0    0.00000   -1.00000    0.47045      0.850    0    1    0    1    0    0    0    1
  proximity        :          2       0.04       0.09         57          0          0    0.00000   -1.00000    0.47045      0.850    0    1    0    1    0    0    0    1
  zeroobjective    :          1       0.00       0.01         51          0          0    0.00000   -1.00000    0.51398      0.700    0    1    0    0    0    0    0    1
  dins             :          2       0.03       0.04         54          0          0    0.00000   -1.00000    0.47045      0.850    0    1    0    1    0    0    0    1
  trustregion      :          0       0.00       0.00          0          0          0    0.00000   -1.00000    1.00000      0.900    0    0    0    0    0    0    0    0
Expressions        :   #IntEval  IntEvalTi   #RevProp  RevPropTi    DomReds    Cutoffs  #Estimate  EstimTime  Branching  #Simplify SimplifyTi Simplified
  pow              :          0       0.00          0       0.00          0          0          0       0.00          0          0       0.00          0
  prod             :      17820       0.00          0       0.00          0          0          0       0.00          0      10091       0.01          0
  sum              :          8       0.00          2       0.00          0          0          0       0.00          0          3       0.02          2
  var              :       4799       0.00          0       0.00          0          0          0       0.00          0      21714       0.05          0
  varidx           :          0       0.00          0       0.00          0          0          0       0.00          0          0       0.00          0
LP                 :       Time      Calls Iterations  Iter/call   Iter/sec  Time-0-It Calls-0-It    ItLimit
  primal LP        :      68.17      12287          0       0.00       0.00      68.12      12287
  dual LP          :    2582.79     212847   27832071     148.14   10775.97       6.43      24974
  lex dual LP      :       0.00          0          0       0.00          -
  barrier LP       :       0.00          0          0       0.00          -       0.00          0
  resolve instable :       0.00          0          0       0.00          -
  diving/probing LP:     379.72      32948    4481778     136.03   11802.85
  strong branching :      10.37        918     134684     146.71   12987.85          -          -        574
    (at root node) :          -         20       3089     154.45          -
  conflict analysis:       7.48       7325      68582       9.36    9168.72
NLP relaxation     :
  solve time       :      12.54 (21 calls)
  convexity        :  nonconvex (145 linear rows, 0 convex ineq., 0 nonconvex ineq., 1181 nonlinear eq. or two-sided ineq.)
NLP Solvers        :  #Problems  ProblemTi    #Solves  SolveTime      #Iter  Time/Iter      #Okay #TimeLimit #IterLimit #LObjLimit #Interrupt  #NumError #EvalError  #OutOfMem #LicenseEr #OtherTerm   #GlobOpt    #LocOpt  #Feasible #LocInfeas #GlobInfea #Unbounded   #Unknown
  ipopt            :         12       5.36         58      59.77       1770       0.03         56          0          2          0          0          0          0          0          0          0          0         37          0         18          0          0          3
B&B Tree           :
  number of runs   :          1
  nodes            :     164516 (114420 internal, 50096 leaves)
  feasible leaves  :          0
  infeas. leaves   :         35
  objective leaves :      50060
  nodes (total)    :     164516 (114420 internal, 50096 leaves)
  nodes left       :      60751
  max depth        :         79
  max depth (total):         79
  backtracks       :      33427 (20.3%)
  early backtracks :          0 (0.0%)
  nodes exc. ref.  :          0 (0.0%)
  delayed cutoffs  :          0
  repropagations   :       6332 (354 domain reductions, 0 cutoffs)
  avg switch length:       7.00
  switching time   :      95.54
Estim. Tree Size   :     336180
Estimation Tree    : 228841 nodes (168090 visited, 114420 internal, 53670 leaves, 60751 open), weight: 0.0000 completed 0.1020
Estimations        :      estim      value      trend resolution     smooth
  wbe              : 8292465134495924224          -          -          -          -
  tree-profile     :         -1          -          -          -          -
  gap              :    7952284    0.60036    0.00001         64    7833931
  tree-weight      :     336180    0.00000    0.00000         64     335656
  leaf-frequency   :     336180    0.31929   -0.00003         64     335656
  ssg              :   20306282    0.83893   -0.00001         64   19748848
  open-nodes       :     336180 60751.00000  109.64411         64     335656
Root Node          :
  First LP value   : -5.55465768799102e+00
  First LP Iters   :       2240 (20363.64 Iter/sec)
  First LP Time    :       0.11
  Final Dual Bound : -5.42818989574291e+00
  Final Root Iters :       2821
  Root LP Estimate : -2.63220102306891e+00
Solution           :
  Solutions found  :        145 (18 improvements)
  First Solution   : +1.00000000000000e+05   (in run 1, after 0 nodes, 0.03 seconds, depth 0, found by <trivial>)
  Gap First Sol.   :   infinite
  Gap Last Sol.    :      66.76 %
  Primal Bound     : -2.99551066217733e+00   (in run 1, after 145078 nodes, 1958.86 seconds, depth 42, found by <crossover>)
  Dual Bound       : -4.98955665312227e+00
  Gap              :      66.57 %
Integrals          :      Total       Avg%
  primal-dual      :  146987.94      40.83
  primal-ref       :          -          - (not evaluated)
  dual-ref         :          -          - (not evaluated)
